c K to QBF translator. (C)Rice University.
c From input file 5-14.lwb
p cnf 708 1828
e 708 1 707 0
a 164 0
e 200 706 7 6 5 4 3 2 203 705 0
a 165 166 0
e 206 704 17 16 15 14 13 12 11 10 9 8 209 215 218 221 223 224 703 0
a 167 168 0
e 228 702 27 26 25 24 23 22 21 20 19 18 231 237 240 243 246 249 251 253 254 701 0
a 169 170 0
e 258 700 37 36 35 34 33 32 31 30 29 28 261 267 270 273 276 279 281 283 284 699 0
a 171 172 0
e 288 698 47 46 45 44 43 42 41 40 39 38 291 297 300 303 306 309 311 313 314 697 0
a 173 174 0
e 318 696 57 56 55 54 53 52 51 50 49 48 321 327 330 333 336 339 341 343 344 695 0
a 175 176 0
e 348 694 67 66 65 64 63 62 61 60 59 58 351 357 360 363 366 369 371 373 374 693 0
a 177 178 0
e 378 692 75 74 73 72 71 70 69 68 381 386 389 392 395 398 400 402 403 691 0
a 179 180 0
e 406 690 82 81 80 79 78 77 76 409 414 417 420 422 424 425 689 0
a 181 182 0
e 428 688 92 91 90 89 88 87 86 85 84 83 431 437 440 443 445 446 687 0
a 183 184 0
e 450 686 102 101 100 99 98 97 96 95 94 93 453 459 462 465 468 471 473 475 476 685 0
a 185 186 0
e 480 684 112 111 110 109 108 107 106 105 104 103 483 489 492 495 498 501 503 505 506 683 0
a 187 188 0
e 510 682 122 121 120 119 118 117 116 115 114 113 513 519 522 525 528 531 533 535 536 681 0
a 189 190 0
e 540 680 130 129 128 127 126 125 124 123 543 548 551 554 557 560 562 564 565 679 0
a 191 192 0
e 568 678 142 141 140 139 138 137 136 135 134 133 132 131 571 578 581 584 587 589 590 677 0
a 193 194 0
e 594 676 151 150 149 148 147 146 145 144 143 597 600 603 606 609 612 615 618 621 623 624 675 0
a 195 196 0
e 627 674 157 156 155 154 153 152 630 634 637 640 643 646 648 649 673 0
a 197 198 0
e 652 672 161 160 159 158 655 658 661 663 664 671 0
a 199 0
e 665 670 163 162 667 668 669 666 662 659 660 657 656 654 653 650 651 647 644 645 642 641 639 638 636 635 632 633 631 629 628 625 626 622 619 620 616 617 614 613 611 610 608 607 605 604 602 601 599 598 596 595 591 592 593 588 585 586 583 582 580 579 573 577 574 575 576 572 570 569 566 567 563 561 558 559 556 555 553 552 550 549 545 547 546 544 542 541 537 538 539 534 532 529 530 527 526 524 523 521 520 515 518 516 517 514 512 511 507 508 509 504 502 499 500 497 496 494 493 491 490 485 488 486 487 484 482 481 477 478 479 474 472 469 470 467 466 464 463 461 460 455 458 456 457 454 452 451 447 448 449 444 441 442 439 438 433 436 434 435 432 430 429 426 427 423 421 419 418 416 415 411 413 412 410 408 407 404 405 401 399 396 397 394 393 391 390 388 387 383 385 384 382 380 379 375 376 377 372 370 367 368 365 364 362 361 359 358 353 356 354 355 352 350 349 345 346 347 342 340 337 338 335 334 332 331 329 328 323 326 324 325 322 320 319 315 316 317 312 310 307 308 305 304 302 301 299 298 293 296 294 295 292 290 289 285 286 287 282 280 277 278 275 274 272 271 269 268 263 266 264 265 262 260 259 255 256 257 252 250 247 248 245 244 242 241 239 238 233 236 234 235 232 230 229 225 226 227 222 219 220 217 216 211 214 212 213 210 208 207 204 205 202 201 0
708  0 
708 -707 -1  0 
707 -708  0 
1 -708  0 
-707 200 706  0 
-200 707  0 
-706 707  0 
-200 -164 -1  0 
164 200  0 
1 200  0 
706 -203 -705  0 
203 -706  0 
705 -706  0 
-203 -164 202  0 
164 203  0 
-202 203  0 
202 -5 -2 -201  0 
5 -202  0 
2 -202  0 
201 -202  0 
-201 3 4 7 6  0 
-3 201  0 
-4 201  0 
-7 201  0 
-6 201  0 
-705 206 704  0 
-206 705  0 
-704 705  0 
206 -204 -205  0 
204 -206  0 
205 -206  0 
-204 -3 165 -166  0 
3 204  0 
-165 204  0 
166 204  0 
-205 -2 -165 -166  0 
2 205  0 
165 205  0 
166 205  0 
704 -209 -215 -218 -221 -223 -224 -703  0 
209 -704  0 
215 -704  0 
218 -704  0 
221 -704  0 
223 -704  0 
224 -704  0 
703 -704  0 
-209 208 17  0 
-208 209  0 
-17 209  0 
-208 -6 207  0 
6 208  0 
-207 208  0 
207 3 2  0 
-3 -207  0 
-2 -207  0 
-215 211 214  0 
-211 215  0 
-214 215  0 
-211 -5 210  0 
5 211  0 
-210 211  0 
210 3 2  0 
-3 -210  0 
-2 -210  0 
214 -14 -212 -213  0 
14 -214  0 
212 -214  0 
213 -214  0 
-212 9 12  0 
-9 212  0 
-12 212  0 
-213 10 11 17 15  0 
-10 213  0 
-11 213  0 
-17 213  0 
-15 213  0 
-218 217 9  0 
-217 218  0 
-9 218  0 
-217 -4 216  0 
4 217  0 
-216 217  0 
216 3 2  0 
-3 -216  0 
-2 -216  0 
-221 219 220  0 
-219 221  0 
-220 221  0 
-219 165 -166  0 
-165 219  0 
166 219  0 
220 -13 -16  0 
13 -220  0 
16 -220  0 
-223 222 8  0 
-222 223  0 
-8 223  0 
-222 -165 -166  0 
165 222  0 
166 222  0 
-224 -16 -17  0 
16 224  0 
17 224  0 
-703 228 702  0 
-228 703  0 
-702 703  0 
228 -225 -226 -227  0 
225 -228  0 
226 -228  0 
227 -228  0 
-225 -10 -167 168  0 
10 225  0 
167 225  0 
-168 225  0 
-226 -9 167 -168  0 
9 226  0 
-167 226  0 
168 226  0 
-227 -8 -167 -168  0 
8 227  0 
167 227  0 
168 227  0 
702 -231 -237 -240 -243 -246 -249 -251 -253 -254 -701  0 
231 -702  0 
237 -702  0 
240 -702  0 
243 -702  0 
246 -702  0 
249 -702  0 
251 -702  0 
253 -702  0 
254 -702  0 
701 -702  0 
-231 230 27  0 
-230 231  0 
-27 231  0 
-230 -15 229  0 
15 230  0 
-229 230  0 
229 10 9 8  0 
-10 -229  0 
-9 -229  0 
-8 -229  0 
-237 233 236  0 
-233 237  0 
-236 237  0 
-233 -14 232  0 
14 233  0 
-232 233  0 
232 10 9 8  0 
-10 -232  0 
-9 -232  0 
-8 -232  0 
236 -24 -234 -235  0 
24 -236  0 
234 -236  0 
235 -236  0 
-234 19 22  0 
-19 234  0 
-22 234  0 
-235 20 21 27 25  0 
-20 235  0 
-21 235  0 
-27 235  0 
-25 235  0 
-240 239 26 25  0 
-239 240  0 
-26 240  0 
-25 240  0 
-239 -13 238  0 
13 239  0 
-238 239  0 
238 10 9 8  0 
-10 -238  0 
-9 -238  0 
-8 -238  0 
-243 242 25  0 
-242 243  0 
-25 243  0 
-242 -12 241  0 
12 242  0 
-241 242  0 
241 10 9 8  0 
-10 -241  0 
-9 -241  0 
-8 -241  0 
-246 245 19  0 
-245 246  0 
-19 246  0 
-245 -11 244  0 
11 245  0 
-244 245  0 
244 10 9 8  0 
-10 -244  0 
-9 -244  0 
-8 -244  0 
-249 247 248  0 
-247 249  0 
-248 249  0 
-247 -167 168  0 
167 247  0 
-168 247  0 
248 -23 -26  0 
23 -248  0 
26 -248  0 
-251 250 26  0 
-250 251  0 
-26 251  0 
-250 167 -168  0 
-167 250  0 
168 250  0 
-253 252 18  0 
-252 253  0 
-18 253  0 
-252 -167 -168  0 
167 252  0 
168 252  0 
-254 -26 -27  0 
26 254  0 
27 254  0 
-701 258 700  0 
-258 701  0 
-700 701  0 
258 -255 -256 -257  0 
255 -258  0 
256 -258  0 
257 -258  0 
-255 -20 -169 170  0 
20 255  0 
169 255  0 
-170 255  0 
-256 -19 169 -170  0 
19 256  0 
-169 256  0 
170 256  0 
-257 -18 -169 -170  0 
18 257  0 
169 257  0 
170 257  0 
700 -261 -267 -270 -273 -276 -279 -281 -283 -284 -699  0 
261 -700  0 
267 -700  0 
270 -700  0 
273 -700  0 
276 -700  0 
279 -700  0 
281 -700  0 
283 -700  0 
284 -700  0 
699 -700  0 
-261 260 37  0 
-260 261  0 
-37 261  0 
-260 -25 259  0 
25 260  0 
-259 260  0 
259 20 19 18  0 
-20 -259  0 
-19 -259  0 
-18 -259  0 
-267 263 266  0 
-263 267  0 
-266 267  0 
-263 -24 262  0 
24 263  0 
-262 263  0 
262 20 19 18  0 
-20 -262  0 
-19 -262  0 
-18 -262  0 
266 -34 -264 -265  0 
34 -266  0 
264 -266  0 
265 -266  0 
-264 29 32  0 
-29 264  0 
-32 264  0 
-265 30 31 37 35  0 
-30 265  0 
-31 265  0 
-37 265  0 
-35 265  0 
-270 269 36 35  0 
-269 270  0 
-36 270  0 
-35 270  0 
-269 -23 268  0 
23 269  0 
-268 269  0 
268 20 19 18  0 
-20 -268  0 
-19 -268  0 
-18 -268  0 
-273 272 35  0 
-272 273  0 
-35 273  0 
-272 -22 271  0 
22 272  0 
-271 272  0 
271 20 19 18  0 
-20 -271  0 
-19 -271  0 
-18 -271  0 
-276 275 29  0 
-275 276  0 
-29 276  0 
-275 -21 274  0 
21 275  0 
-274 275  0 
274 20 19 18  0 
-20 -274  0 
-19 -274  0 
-18 -274  0 
-279 277 278  0 
-277 279  0 
-278 279  0 
-277 -169 170  0 
169 277  0 
-170 277  0 
278 -33 -36  0 
33 -278  0 
36 -278  0 
-281 280 36  0 
-280 281  0 
-36 281  0 
-280 169 -170  0 
-169 280  0 
170 280  0 
-283 282 28  0 
-282 283  0 
-28 283  0 
-282 -169 -170  0 
169 282  0 
170 282  0 
-284 -36 -37  0 
36 284  0 
37 284  0 
-699 288 698  0 
-288 699  0 
-698 699  0 
288 -285 -286 -287  0 
285 -288  0 
286 -288  0 
287 -288  0 
-285 -30 -171 172  0 
30 285  0 
171 285  0 
-172 285  0 
-286 -29 171 -172  0 
29 286  0 
-171 286  0 
172 286  0 
-287 -28 -171 -172  0 
28 287  0 
171 287  0 
172 287  0 
698 -291 -297 -300 -303 -306 -309 -311 -313 -314 -697  0 
291 -698  0 
297 -698  0 
300 -698  0 
303 -698  0 
306 -698  0 
309 -698  0 
311 -698  0 
313 -698  0 
314 -698  0 
697 -698  0 
-291 290 47  0 
-290 291  0 
-47 291  0 
-290 -35 289  0 
35 290  0 
-289 290  0 
289 30 29 28  0 
-30 -289  0 
-29 -289  0 
-28 -289  0 
-297 293 296  0 
-293 297  0 
-296 297  0 
-293 -34 292  0 
34 293  0 
-292 293  0 
292 30 29 28  0 
-30 -292  0 
-29 -292  0 
-28 -292  0 
296 -44 -294 -295  0 
44 -296  0 
294 -296  0 
295 -296  0 
-294 39 42  0 
-39 294  0 
-42 294  0 
-295 40 41 47 45  0 
-40 295  0 
-41 295  0 
-47 295  0 
-45 295  0 
-300 299 46 45  0 
-299 300  0 
-46 300  0 
-45 300  0 
-299 -33 298  0 
33 299  0 
-298 299  0 
298 30 29 28  0 
-30 -298  0 
-29 -298  0 
-28 -298  0 
-303 302 45  0 
-302 303  0 
-45 303  0 
-302 -32 301  0 
32 302  0 
-301 302  0 
301 30 29 28  0 
-30 -301  0 
-29 -301  0 
-28 -301  0 
-306 305 39  0 
-305 306  0 
-39 306  0 
-305 -31 304  0 
31 305  0 
-304 305  0 
304 30 29 28  0 
-30 -304  0 
-29 -304  0 
-28 -304  0 
-309 307 308  0 
-307 309  0 
-308 309  0 
-307 -171 172  0 
171 307  0 
-172 307  0 
308 -43 -46  0 
43 -308  0 
46 -308  0 
-311 310 46  0 
-310 311  0 
-46 311  0 
-310 171 -172  0 
-171 310  0 
172 310  0 
-313 312 38  0 
-312 313  0 
-38 313  0 
-312 -171 -172  0 
171 312  0 
172 312  0 
-314 -46 -47  0 
46 314  0 
47 314  0 
-697 318 696  0 
-318 697  0 
-696 697  0 
318 -315 -316 -317  0 
315 -318  0 
316 -318  0 
317 -318  0 
-315 -40 -173 174  0 
40 315  0 
173 315  0 
-174 315  0 
-316 -39 173 -174  0 
39 316  0 
-173 316  0 
174 316  0 
-317 -38 -173 -174  0 
38 317  0 
173 317  0 
174 317  0 
696 -321 -327 -330 -333 -336 -339 -341 -343 -344 -695  0 
321 -696  0 
327 -696  0 
330 -696  0 
333 -696  0 
336 -696  0 
339 -696  0 
341 -696  0 
343 -696  0 
344 -696  0 
695 -696  0 
-321 320 57  0 
-320 321  0 
-57 321  0 
-320 -45 319  0 
45 320  0 
-319 320  0 
319 40 39 38  0 
-40 -319  0 
-39 -319  0 
-38 -319  0 
-327 323 326  0 
-323 327  0 
-326 327  0 
-323 -44 322  0 
44 323  0 
-322 323  0 
322 40 39 38  0 
-40 -322  0 
-39 -322  0 
-38 -322  0 
326 -54 -324 -325  0 
54 -326  0 
324 -326  0 
325 -326  0 
-324 49 52  0 
-49 324  0 
-52 324  0 
-325 50 51 57 55  0 
-50 325  0 
-51 325  0 
-57 325  0 
-55 325  0 
-330 329 56 55  0 
-329 330  0 
-56 330  0 
-55 330  0 
-329 -43 328  0 
43 329  0 
-328 329  0 
328 40 39 38  0 
-40 -328  0 
-39 -328  0 
-38 -328  0 
-333 332 55  0 
-332 333  0 
-55 333  0 
-332 -42 331  0 
42 332  0 
-331 332  0 
331 40 39 38  0 
-40 -331  0 
-39 -331  0 
-38 -331  0 
-336 335 49  0 
-335 336  0 
-49 336  0 
-335 -41 334  0 
41 335  0 
-334 335  0 
334 40 39 38  0 
-40 -334  0 
-39 -334  0 
-38 -334  0 
-339 337 338  0 
-337 339  0 
-338 339  0 
-337 -173 174  0 
173 337  0 
-174 337  0 
338 -53 -56  0 
53 -338  0 
56 -338  0 
-341 340 56  0 
-340 341  0 
-56 341  0 
-340 173 -174  0 
-173 340  0 
174 340  0 
-343 342 48  0 
-342 343  0 
-48 343  0 
-342 -173 -174  0 
173 342  0 
174 342  0 
-344 -56 -57  0 
56 344  0 
57 344  0 
-695 348 694  0 
-348 695  0 
-694 695  0 
348 -345 -346 -347  0 
345 -348  0 
346 -348  0 
347 -348  0 
-345 -50 -175 176  0 
50 345  0 
175 345  0 
-176 345  0 
-346 -49 175 -176  0 
49 346  0 
-175 346  0 
176 346  0 
-347 -48 -175 -176  0 
48 347  0 
175 347  0 
176 347  0 
694 -351 -357 -360 -363 -366 -369 -371 -373 -374 -693  0 
351 -694  0 
357 -694  0 
360 -694  0 
363 -694  0 
366 -694  0 
369 -694  0 
371 -694  0 
373 -694  0 
374 -694  0 
693 -694  0 
-351 350 67  0 
-350 351  0 
-67 351  0 
-350 -55 349  0 
55 350  0 
-349 350  0 
349 50 49 48  0 
-50 -349  0 
-49 -349  0 
-48 -349  0 
-357 353 356  0 
-353 357  0 
-356 357  0 
-353 -54 352  0 
54 353  0 
-352 353  0 
352 50 49 48  0 
-50 -352  0 
-49 -352  0 
-48 -352  0 
356 -64 -354 -355  0 
64 -356  0 
354 -356  0 
355 -356  0 
-354 59 62  0 
-59 354  0 
-62 354  0 
-355 60 61 67 65  0 
-60 355  0 
-61 355  0 
-67 355  0 
-65 355  0 
-360 359 66 65  0 
-359 360  0 
-66 360  0 
-65 360  0 
-359 -53 358  0 
53 359  0 
-358 359  0 
358 50 49 48  0 
-50 -358  0 
-49 -358  0 
-48 -358  0 
-363 362 65  0 
-362 363  0 
-65 363  0 
-362 -52 361  0 
52 362  0 
-361 362  0 
361 50 49 48  0 
-50 -361  0 
-49 -361  0 
-48 -361  0 
-366 365 59  0 
-365 366  0 
-59 366  0 
-365 -51 364  0 
51 365  0 
-364 365  0 
364 50 49 48  0 
-50 -364  0 
-49 -364  0 
-48 -364  0 
-369 367 368  0 
-367 369  0 
-368 369  0 
-367 -175 176  0 
175 367  0 
-176 367  0 
368 -63 -66  0 
63 -368  0 
66 -368  0 
-371 370 66  0 
-370 371  0 
-66 371  0 
-370 175 -176  0 
-175 370  0 
176 370  0 
-373 372 58  0 
-372 373  0 
-58 373  0 
-372 -175 -176  0 
175 372  0 
176 372  0 
-374 -66 -67  0 
66 374  0 
67 374  0 
-693 378 692  0 
-378 693  0 
-692 693  0 
378 -375 -376 -377  0 
375 -378  0 
376 -378  0 
377 -378  0 
-375 -60 -177 178  0 
60 375  0 
177 375  0 
-178 375  0 
-376 -59 177 -178  0 
59 376  0 
-177 376  0 
178 376  0 
-377 -58 -177 -178  0 
58 377  0 
177 377  0 
178 377  0 
692 -381 -386 -389 -392 -395 -398 -400 -402 -403 -691  0 
381 -692  0 
386 -692  0 
389 -692  0 
392 -692  0 
395 -692  0 
398 -692  0 
400 -692  0 
402 -692  0 
403 -692  0 
691 -692  0 
-381 380 75  0 
-380 381  0 
-75 381  0 
-380 -65 379  0 
65 380  0 
-379 380  0 
379 60 59 58  0 
-60 -379  0 
-59 -379  0 
-58 -379  0 
-386 383 385  0 
-383 386  0 
-385 386  0 
-383 -64 382  0 
64 383  0 
-382 383  0 
382 60 59 58  0 
-60 -382  0 
-59 -382  0 
-58 -382  0 
385 -72 -384  0 
72 -385  0 
384 -385  0 
-384 69 70  0 
-69 384  0 
-70 384  0 
-389 388 74 73  0 
-388 389  0 
-74 389  0 
-73 389  0 
-388 -63 387  0 
63 388  0 
-387 388  0 
387 60 59 58  0 
-60 -387  0 
-59 -387  0 
-58 -387  0 
-392 391 73  0 
-391 392  0 
-73 392  0 
-391 -62 390  0 
62 391  0 
-390 391  0 
390 60 59 58  0 
-60 -390  0 
-59 -390  0 
-58 -390  0 
-395 394 69  0 
-394 395  0 
-69 395  0 
-394 -61 393  0 
61 394  0 
-393 394  0 
393 60 59 58  0 
-60 -393  0 
-59 -393  0 
-58 -393  0 
-398 396 397  0 
-396 398  0 
-397 398  0 
-396 -177 178  0 
177 396  0 
-178 396  0 
397 -71 -74  0 
71 -397  0 
74 -397  0 
-400 399 74  0 
-399 400  0 
-74 400  0 
-399 177 -178  0 
-177 399  0 
178 399  0 
-402 401 68  0 
-401 402  0 
-68 402  0 
-401 -177 -178  0 
177 401  0 
178 401  0 
-403 -74 -75  0 
74 403  0 
75 403  0 
-691 406 690  0 
-406 691  0 
-690 691  0 
406 -404 -405  0 
404 -406  0 
405 -406  0 
-404 -69 179 -180  0 
69 404  0 
-179 404  0 
180 404  0 
-405 -68 -179 -180  0 
68 405  0 
179 405  0 
180 405  0 
690 -409 -414 -417 -420 -422 -424 -425 -689  0 
409 -690  0 
414 -690  0 
417 -690  0 
420 -690  0 
422 -690  0 
424 -690  0 
425 -690  0 
689 -690  0 
-409 408 82  0 
-408 409  0 
-82 409  0 
-408 -73 407  0 
73 408  0 
-407 408  0 
407 69 68  0 
-69 -407  0 
-68 -407  0 
-414 411 413  0 
-411 414  0 
-413 414  0 
-411 -72 410  0 
72 411  0 
-410 411  0 
410 69 68  0 
-69 -410  0 
-68 -410  0 
413 -79 -412  0 
79 -413  0 
412 -413  0 
-412 77 78 82 80  0 
-77 412  0 
-78 412  0 
-82 412  0 
-80 412  0 
-417 416 81 80  0 
-416 417  0 
-81 417  0 
-80 417  0 
-416 -71 415  0 
71 416  0 
-415 416  0 
415 69 68  0 
-69 -415  0 
-68 -415  0 
-420 419 80  0 
-419 420  0 
-80 420  0 
-419 -70 418  0 
70 419  0 
-418 419  0 
418 69 68  0 
-69 -418  0 
-68 -418  0 
-422 421 81  0 
-421 422  0 
-81 422  0 
-421 179 -180  0 
-179 421  0 
180 421  0 
-424 423 76  0 
-423 424  0 
-76 424  0 
-423 -179 -180  0 
179 423  0 
180 423  0 
-425 -81 -82  0 
81 425  0 
82 425  0 
-689 428 688  0 
-428 689  0 
-688 689  0 
428 -426 -427  0 
426 -428  0 
427 -428  0 
-426 -77 181 -182  0 
77 426  0 
-181 426  0 
182 426  0 
-427 -76 -181 -182  0 
76 427  0 
181 427  0 
182 427  0 
688 -431 -437 -440 -443 -445 -446 -687  0 
431 -688  0 
437 -688  0 
440 -688  0 
443 -688  0 
445 -688  0 
446 -688  0 
687 -688  0 
-431 430 92  0 
-430 431  0 
-92 431  0 
-430 -80 429  0 
80 430  0 
-429 430  0 
429 77 76  0 
-77 -429  0 
-76 -429  0 
-437 433 436  0 
-433 437  0 
-436 437  0 
-433 -79 432  0 
79 433  0 
-432 433  0 
432 77 76  0 
-77 -432  0 
-76 -432  0 
436 -89 -434 -435  0 
89 -436  0 
434 -436  0 
435 -436  0 
-434 84 87  0 
-84 434  0 
-87 434  0 
-435 85 86 92 90  0 
-85 435  0 
-86 435  0 
-92 435  0 
-90 435  0 
-440 439 84  0 
-439 440  0 
-84 440  0 
-439 -78 438  0 
78 439  0 
-438 439  0 
438 77 76  0 
-77 -438  0 
-76 -438  0 
-443 441 442  0 
-441 443  0 
-442 443  0 
-441 181 -182  0 
-181 441  0 
182 441  0 
442 -88 -91  0 
88 -442  0 
91 -442  0 
-445 444 83  0 
-444 445  0 
-83 445  0 
-444 -181 -182  0 
181 444  0 
182 444  0 
-446 -91 -92  0 
91 446  0 
92 446  0 
-687 450 686  0 
-450 687  0 
-686 687  0 
450 -447 -448 -449  0 
447 -450  0 
448 -450  0 
449 -450  0 
-447 -85 -183 184  0 
85 447  0 
183 447  0 
-184 447  0 
-448 -84 183 -184  0 
84 448  0 
-183 448  0 
184 448  0 
-449 -83 -183 -184  0 
83 449  0 
183 449  0 
184 449  0 
686 -453 -459 -462 -465 -468 -471 -473 -475 -476 -685  0 
453 -686  0 
459 -686  0 
462 -686  0 
465 -686  0 
468 -686  0 
471 -686  0 
473 -686  0 
475 -686  0 
476 -686  0 
685 -686  0 
-453 452 102  0 
-452 453  0 
-102 453  0 
-452 -90 451  0 
90 452  0 
-451 452  0 
451 85 84 83  0 
-85 -451  0 
-84 -451  0 
-83 -451  0 
-459 455 458  0 
-455 459  0 
-458 459  0 
-455 -89 454  0 
89 455  0 
-454 455  0 
454 85 84 83  0 
-85 -454  0 
-84 -454  0 
-83 -454  0 
458 -99 -456 -457  0 
99 -458  0 
456 -458  0 
457 -458  0 
-456 94 97  0 
-94 456  0 
-97 456  0 
-457 95 96 102 100  0 
-95 457  0 
-96 457  0 
-102 457  0 
-100 457  0 
-462 461 101 100  0 
-461 462  0 
-101 462  0 
-100 462  0 
-461 -88 460  0 
88 461  0 
-460 461  0 
460 85 84 83  0 
-85 -460  0 
-84 -460  0 
-83 -460  0 
-465 464 100  0 
-464 465  0 
-100 465  0 
-464 -87 463  0 
87 464  0 
-463 464  0 
463 85 84 83  0 
-85 -463  0 
-84 -463  0 
-83 -463  0 
-468 467 94  0 
-467 468  0 
-94 468  0 
-467 -86 466  0 
86 467  0 
-466 467  0 
466 85 84 83  0 
-85 -466  0 
-84 -466  0 
-83 -466  0 
-471 469 470  0 
-469 471  0 
-470 471  0 
-469 -183 184  0 
183 469  0 
-184 469  0 
470 -98 -101  0 
98 -470  0 
101 -470  0 
-473 472 101  0 
-472 473  0 
-101 473  0 
-472 183 -184  0 
-183 472  0 
184 472  0 
-475 474 93  0 
-474 475  0 
-93 475  0 
-474 -183 -184  0 
183 474  0 
184 474  0 
-476 -101 -102  0 
101 476  0 
102 476  0 
-685 480 684  0 
-480 685  0 
-684 685  0 
480 -477 -478 -479  0 
477 -480  0 
478 -480  0 
479 -480  0 
-477 -95 -185 186  0 
95 477  0 
185 477  0 
-186 477  0 
-478 -94 185 -186  0 
94 478  0 
-185 478  0 
186 478  0 
-479 -93 -185 -186  0 
93 479  0 
185 479  0 
186 479  0 
684 -483 -489 -492 -495 -498 -501 -503 -505 -506 -683  0 
483 -684  0 
489 -684  0 
492 -684  0 
495 -684  0 
498 -684  0 
501 -684  0 
503 -684  0 
505 -684  0 
506 -684  0 
683 -684  0 
-483 482 112  0 
-482 483  0 
-112 483  0 
-482 -100 481  0 
100 482  0 
-481 482  0 
481 95 94 93  0 
-95 -481  0 
-94 -481  0 
-93 -481  0 
-489 485 488  0 
-485 489  0 
-488 489  0 
-485 -99 484  0 
99 485  0 
-484 485  0 
484 95 94 93  0 
-95 -484  0 
-94 -484  0 
-93 -484  0 
488 -109 -486 -487  0 
109 -488  0 
486 -488  0 
487 -488  0 
-486 104 107  0 
-104 486  0 
-107 486  0 
-487 105 106 112 110  0 
-105 487  0 
-106 487  0 
-112 487  0 
-110 487  0 
-492 491 111 110  0 
-491 492  0 
-111 492  0 
-110 492  0 
-491 -98 490  0 
98 491  0 
-490 491  0 
490 95 94 93  0 
-95 -490  0 
-94 -490  0 
-93 -490  0 
-495 494 110  0 
-494 495  0 
-110 495  0 
-494 -97 493  0 
97 494  0 
-493 494  0 
493 95 94 93  0 
-95 -493  0 
-94 -493  0 
-93 -493  0 
-498 497 104  0 
-497 498  0 
-104 498  0 
-497 -96 496  0 
96 497  0 
-496 497  0 
496 95 94 93  0 
-95 -496  0 
-94 -496  0 
-93 -496  0 
-501 499 500  0 
-499 501  0 
-500 501  0 
-499 -185 186  0 
185 499  0 
-186 499  0 
500 -108 -111  0 
108 -500  0 
111 -500  0 
-503 502 111  0 
-502 503  0 
-111 503  0 
-502 185 -186  0 
-185 502  0 
186 502  0 
-505 504 103  0 
-504 505  0 
-103 505  0 
-504 -185 -186  0 
185 504  0 
186 504  0 
-506 -111 -112  0 
111 506  0 
112 506  0 
-683 510 682  0 
-510 683  0 
-682 683  0 
510 -507 -508 -509  0 
507 -510  0 
508 -510  0 
509 -510  0 
-507 -105 -187 188  0 
105 507  0 
187 507  0 
-188 507  0 
-508 -104 187 -188  0 
104 508  0 
-187 508  0 
188 508  0 
-509 -103 -187 -188  0 
103 509  0 
187 509  0 
188 509  0 
682 -513 -519 -522 -525 -528 -531 -533 -535 -536 -681  0 
513 -682  0 
519 -682  0 
522 -682  0 
525 -682  0 
528 -682  0 
531 -682  0 
533 -682  0 
535 -682  0 
536 -682  0 
681 -682  0 
-513 512 122  0 
-512 513  0 
-122 513  0 
-512 -110 511  0 
110 512  0 
-511 512  0 
511 105 104 103  0 
-105 -511  0 
-104 -511  0 
-103 -511  0 
-519 515 518  0 
-515 519  0 
-518 519  0 
-515 -109 514  0 
109 515  0 
-514 515  0 
514 105 104 103  0 
-105 -514  0 
-104 -514  0 
-103 -514  0 
518 -119 -516 -517  0 
119 -518  0 
516 -518  0 
517 -518  0 
-516 114 117  0 
-114 516  0 
-117 516  0 
-517 115 116 122 120  0 
-115 517  0 
-116 517  0 
-122 517  0 
-120 517  0 
-522 521 121 120  0 
-521 522  0 
-121 522  0 
-120 522  0 
-521 -108 520  0 
108 521  0 
-520 521  0 
520 105 104 103  0 
-105 -520  0 
-104 -520  0 
-103 -520  0 
-525 524 120  0 
-524 525  0 
-120 525  0 
-524 -107 523  0 
107 524  0 
-523 524  0 
523 105 104 103  0 
-105 -523  0 
-104 -523  0 
-103 -523  0 
-528 527 114  0 
-527 528  0 
-114 528  0 
-527 -106 526  0 
106 527  0 
-526 527  0 
526 105 104 103  0 
-105 -526  0 
-104 -526  0 
-103 -526  0 
-531 529 530  0 
-529 531  0 
-530 531  0 
-529 -187 188  0 
187 529  0 
-188 529  0 
530 -118 -121  0 
118 -530  0 
121 -530  0 
-533 532 121  0 
-532 533  0 
-121 533  0 
-532 187 -188  0 
-187 532  0 
188 532  0 
-535 534 113  0 
-534 535  0 
-113 535  0 
-534 -187 -188  0 
187 534  0 
188 534  0 
-536 -121 -122  0 
121 536  0 
122 536  0 
-681 540 680  0 
-540 681  0 
-680 681  0 
540 -537 -538 -539  0 
537 -540  0 
538 -540  0 
539 -540  0 
-537 -115 -189 190  0 
115 537  0 
189 537  0 
-190 537  0 
-538 -114 189 -190  0 
114 538  0 
-189 538  0 
190 538  0 
-539 -113 -189 -190  0 
113 539  0 
189 539  0 
190 539  0 
680 -543 -548 -551 -554 -557 -560 -562 -564 -565 -679  0 
543 -680  0 
548 -680  0 
551 -680  0 
554 -680  0 
557 -680  0 
560 -680  0 
562 -680  0 
564 -680  0 
565 -680  0 
679 -680  0 
-543 542 130  0 
-542 543  0 
-130 543  0 
-542 -120 541  0 
120 542  0 
-541 542  0 
541 115 114 113  0 
-115 -541  0 
-114 -541  0 
-113 -541  0 
-548 545 547  0 
-545 548  0 
-547 548  0 
-545 -119 544  0 
119 545  0 
-544 545  0 
544 115 114 113  0 
-115 -544  0 
-114 -544  0 
-113 -544  0 
547 -127 -546  0 
127 -547  0 
546 -547  0 
-546 123 125  0 
-123 546  0 
-125 546  0 
-551 550 129 128  0 
-550 551  0 
-129 551  0 
-128 551  0 
-550 -118 549  0 
118 550  0 
-549 550  0 
549 115 114 113  0 
-115 -549  0 
-114 -549  0 
-113 -549  0 
-554 553 128  0 
-553 554  0 
-128 554  0 
-553 -117 552  0 
117 553  0 
-552 553  0 
552 115 114 113  0 
-115 -552  0 
-114 -552  0 
-113 -552  0 
-557 556 123  0 
-556 557  0 
-123 557  0 
-556 -116 555  0 
116 556  0 
-555 556  0 
555 115 114 113  0 
-115 -555  0 
-114 -555  0 
-113 -555  0 
-560 558 559  0 
-558 560  0 
-559 560  0 
-558 -189 190  0 
189 558  0 
-190 558  0 
559 -126 -129  0 
126 -559  0 
129 -559  0 
-562 561 129  0 
-561 562  0 
-129 562  0 
-561 189 -190  0 
-189 561  0 
190 561  0 
-564 563 124  0 
-563 564  0 
-124 564  0 
-563 -189 -190  0 
189 563  0 
190 563  0 
-565 -129 -130  0 
129 565  0 
130 565  0 
-679 568 678  0 
-568 679  0 
-678 679  0 
568 -566 -567  0 
566 -568  0 
567 -568  0 
-566 -124 191 -192  0 
124 566  0 
-191 566  0 
192 566  0 
-567 -123 -191 -192  0 
123 567  0 
191 567  0 
192 567  0 
678 -571 -578 -581 -584 -587 -589 -590 -677  0 
571 -678  0 
578 -678  0 
581 -678  0 
584 -678  0 
587 -678  0 
589 -678  0 
590 -678  0 
677 -678  0 
-571 570 142  0 
-570 571  0 
-142 571  0 
-570 -128 569  0 
128 570  0 
-569 570  0 
569 124 123  0 
-124 -569  0 
-123 -569  0 
-578 573 577  0 
-573 578  0 
-577 578  0 
-573 -127 572  0 
127 573  0 
-572 573  0 
572 124 123  0 
-124 -572  0 
-123 -572  0 
577 -137 -574 -575 -576  0 
137 -577  0 
574 -577  0 
575 -577  0 
576 -577  0 
-574 133 135 139 141 140  0 
-133 574  0 
-135 574  0 
-139 574  0 
-141 574  0 
-140 574  0 
-575 132 134 142 140  0 
-132 575  0 
-134 575  0 
-142 575  0 
-140 575  0 
-576 132 136  0 
-132 576  0 
-136 576  0 
-581 580 141 140  0 
-580 581  0 
-141 581  0 
-140 581  0 
-580 -126 579  0 
126 580  0 
-579 580  0 
579 124 123  0 
-124 -579  0 
-123 -579  0 
-584 583 140  0 
-583 584  0 
-140 584  0 
-583 -125 582  0 
125 583  0 
-582 583  0 
582 124 123  0 
-124 -582  0 
-123 -582  0 
-587 585 586  0 
-585 587  0 
-586 587  0 
-585 191 -192  0 
-191 585  0 
192 585  0 
586 -138 -131 -141  0 
138 -586  0 
131 -586  0 
141 -586  0 
-589 588 141  0 
-588 589  0 
-141 589  0 
-588 -191 -192  0 
191 588  0 
192 588  0 
-590 -141 -142  0 
141 590  0 
142 590  0 
-677 594 676  0 
-594 677  0 
-676 677  0 
594 -591 -592 -593  0 
591 -594  0 
592 -594  0 
593 -594  0 
-591 -133 -193 194  0 
133 591  0 
193 591  0 
-194 591  0 
-592 -132 193 -194  0 
132 592  0 
-193 592  0 
194 592  0 
-593 -131 -193 -194  0 
131 593  0 
193 593  0 
194 593  0 
676 -597 -600 -603 -606 -609 -612 -615 -618 -621 -623 -624 -675  0 
597 -676  0 
600 -676  0 
603 -676  0 
606 -676  0 
609 -676  0 
612 -676  0 
615 -676  0 
618 -676  0 
621 -676  0 
623 -676  0 
624 -676  0 
675 -676  0 
-597 596 151  0 
-596 597  0 
-151 597  0 
-596 -140 595  0 
140 596  0 
-595 596  0 
595 133 132 131  0 
-133 -595  0 
-132 -595  0 
-131 -595  0 
-600 599 150 149  0 
-599 600  0 
-150 600  0 
-149 600  0 
-599 -139 598  0 
139 599  0 
-598 599  0 
598 133 132 131  0 
-133 -598  0 
-132 -598  0 
-131 -598  0 
-603 602 144 151  0 
-602 603  0 
-144 603  0 
-151 603  0 
-602 -138 601  0 
138 602  0 
-601 602  0 
601 133 132 131  0 
-133 -601  0 
-132 -601  0 
-131 -601  0 
-606 605 143 145  0 
-605 606  0 
-143 606  0 
-145 606  0 
-605 -137 604  0 
137 605  0 
-604 605  0 
604 133 132 131  0 
-133 -604  0 
-132 -604  0 
-131 -604  0 
-609 608 146  0 
-608 609  0 
-146 609  0 
-608 -136 607  0 
136 608  0 
-607 608  0 
607 133 132 131  0 
-133 -607  0 
-132 -607  0 
-131 -607  0 
-612 611 144  0 
-611 612  0 
-144 612  0 
-611 -135 610  0 
135 611  0 
-610 611  0 
610 133 132 131  0 
-133 -610  0 
-132 -610  0 
-131 -610  0 
-615 614 143  0 
-614 615  0 
-143 615  0 
-614 -134 613  0 
134 614  0 
-613 614  0 
613 133 132 131  0 
-133 -613  0 
-132 -613  0 
-131 -613  0 
-618 616 617  0 
-616 618  0 
-617 618  0 
-616 -193 194  0 
193 616  0 
-194 616  0 
617 -148 -151 -143  0 
148 -617  0 
151 -617  0 
143 -617  0 
-621 619 620  0 
-619 621  0 
-620 621  0 
-619 193 -194  0 
-193 619  0 
194 619  0 
620 -147 -150  0 
147 -620  0 
150 -620  0 
-623 622 149  0 
-622 623  0 
-149 623  0 
-622 -193 -194  0 
193 622  0 
194 622  0 
-624 -150 -151  0 
150 624  0 
151 624  0 
-675 627 674  0 
-627 675  0 
-674 675  0 
627 -625 -626  0 
625 -627  0 
626 -627  0 
-625 -144 195 -196  0 
144 625  0 
-195 625  0 
196 625  0 
-626 -143 -195 -196  0 
143 626  0 
195 626  0 
196 626  0 
674 -630 -634 -637 -640 -643 -646 -648 -649 -673  0 
630 -674  0 
634 -674  0 
637 -674  0 
640 -674  0 
643 -674  0 
646 -674  0 
648 -674  0 
649 -674  0 
673 -674  0 
-630 629 157  0 
-629 630  0 
-157 630  0 
-629 -149 628  0 
149 629  0 
-628 629  0 
628 144 143  0 
-144 -628  0 
-143 -628  0 
-634 632 633 154  0 
-632 634  0 
-633 634  0 
-154 634  0 
-632 -148 631  0 
148 632  0 
-631 632  0 
631 144 143  0 
-144 -631  0 
-143 -631  0 
633 -157 -152  0 
157 -633  0 
152 -633  0 
-637 636 156 155  0 
-636 637  0 
-156 637  0 
-155 637  0 
-636 -147 635  0 
147 636  0 
-635 636  0 
635 144 143  0 
-144 -635  0 
-143 -635  0 
-640 639 153 157  0 
-639 640  0 
-153 640  0 
-157 640  0 
-639 -146 638  0 
146 639  0 
-638 639  0 
638 144 143  0 
-144 -638  0 
-143 -638  0 
-643 642 155  0 
-642 643  0 
-155 643  0 
-642 -145 641  0 
145 642  0 
-641 642  0 
641 144 143  0 
-144 -641  0 
-143 -641  0 
-646 644 645  0 
-644 646  0 
-645 646  0 
-644 195 -196  0 
-195 644  0 
196 644  0 
645 -157 -152  0 
157 -645  0 
152 -645  0 
-648 647 156  0 
-647 648  0 
-156 648  0 
-647 -195 -196  0 
195 647  0 
196 647  0 
-649 -156 -157  0 
156 649  0 
157 649  0 
-673 652 672  0 
-652 673  0 
-672 673  0 
652 -650 -651  0 
650 -652  0 
651 -652  0 
-650 -153 197 -198  0 
153 650  0 
-197 650  0 
198 650  0 
-651 -152 -197 -198  0 
152 651  0 
197 651  0 
198 651  0 
672 -655 -658 -661 -663 -664 -671  0 
655 -672  0 
658 -672  0 
661 -672  0 
663 -672  0 
664 -672  0 
671 -672  0 
-655 654 161  0 
-654 655  0 
-161 655  0 
-654 -155 653  0 
155 654  0 
-653 654  0 
653 153 152  0 
-153 -653  0 
-152 -653  0 
-658 657 160 159  0 
-657 658  0 
-160 658  0 
-159 658  0 
-657 -154 656  0 
154 657  0 
-656 657  0 
656 153 152  0 
-153 -656  0 
-152 -656  0 
-661 659 660  0 
-659 661  0 
-660 661  0 
-659 197 -198  0 
-197 659  0 
198 659  0 
660 -161 -158  0 
161 -660  0 
158 -660  0 
-663 662 160  0 
-662 663  0 
-160 663  0 
-662 -197 -198  0 
197 662  0 
198 662  0 
-664 -160 -161  0 
160 664  0 
161 664  0 
-671 665 670  0 
-665 671  0 
-670 671  0 
-665 -199 -158  0 
199 665  0 
158 665  0 
670 -667 -668 -669  0 
667 -670  0 
668 -670  0 
669 -670  0 
-667 666 163  0 
-666 667  0 
-163 667  0 
-666 -159 -158  0 
159 666  0 
158 666  0 
-668 -199 162  0 
199 668  0 
-162 668  0 
-669 -162 -163  0 
162 669  0 
163 669  0 
